Route #1: 25 28 3 12 1 40
Route #2: 15 35 27 31 43 33 20
Route #3: 5 17 2 36 14 39 24 26 9
Route #4: 10 23 11 18
Route #5: 7 16 29
Route #6: 4 8 42 30 22 38
Route #7: 19 32 13 37 41 34 21 6
Cost 909
Time 0.082997
